************************************************************************
file with basedata            : mm28_.bas
initial value random generator: 21149
************************************************************************
projects                      :  1
jobs (incl. supersource/sink ):  12
horizon                       :  84
RESOURCES
  - renewable                 :  2   R
  - nonrenewable              :  2   N
  - doubly constrained        :  0   D
************************************************************************
PROJECT INFORMATION:
pronr.  #jobs rel.date duedate tardcost  MPM-Time
    1     10      0       19        2       19
************************************************************************
PRECEDENCE RELATIONS:
jobnr.    #modes  #successors   successors
   0        1          3           1   2   3
   1        3          2           9  10
   2        3          2           4   5
   3        3          2           5   6
   4        3          2           7  10
   5        3          1           8
   6        3          1           8
   7        3          2           8   9
   8        3          1          11
   9        3          1          11
  10        3          1          11
  11        1          0        
************************************************************************
REQUESTS/DURATIONS:
jobnr. mode duration  R 1  R 2  R 3  R 4  E(W 1)
------------------------------------------------------------------------
  0      1     0       0    0    0    0     0
  1      1     4       1    0    0    7    36
  2      1     1       4    0    0    7    11
  3      1     2       9    0    4    0    26
  4      1     5       0    5    0   10    75
  5      1     1       9    0    8    0    17
  6      1     5       0    7    9    0    80
  7      1     7       4    0    9    0    91
  8      1     4       4    0    0    5    36
  9      1     6       5    0    4    0    54
 10      1     3       0    6    9    0    45
 11      1     0       0    0    0    0     0
************************************************************************
RESOURCEAVAILABILITIES:
  R 1
   156
************************************************************************
RESOURCE LIMITS:
jobnr.  l(R 1)  u(R 1)
------------------------------------------------------------------------
  0        0       0
  1        5       9
  2        6      11
  3        7      13
  4        8      15
  5        9      17
  6        9      16
  7        7      13
  8        5       9
  9        5       9
 10        8      15
 11        0       0
************************************************************************
SCENARIOS:
------------------------------------------------------------------------
RESOURCE k = 1
s = 1: (0, 47, 17, 30, 89, 21, 111, 89, 37, 60, 47, 0)
s = 2: (0, 22, 10, 36, 68, 16, 67, 137, 35, 61, 48, 0)
s = 3: (0, 20, 9, 30, 87, 26, 54, 62, 36, 65, 30, 0)
s = 4: (0, 36, 10, 33, 62, 11, 61, 77, 57, 56, 79, 0)
s = 5: (0, 35, 9, 22, 83, 14, 65, 82, 36, 62, 37, 0)
s = 6: (0, 37, 8, 16, 97, 21, 94, 91, 46, 44, 27, 0)
s = 7: (0, 27, 13, 21, 50, 18, 141, 59, 25, 56, 58, 0)
s = 8: (0, 24, 12, 25, 61, 13, 94, 67, 30, 57, 54, 0)
s = 9: (0, 48, 9, 29, 72, 23, 45, 73, 39, 37, 46, 0)
s = 10: (0, 32, 8, 23, 61, 15, 60, 118, 49, 64, 37, 0)
s = 11: (0, 31, 9, 29, 67, 15, 70, 85, 44, 42, 58, 0)
s = 12: (0, 39, 13, 40, 87, 17, 78, 58, 42, 73, 46, 0)
s = 13: (0, 50, 8, 23, 103, 17, 57, 57, 37, 54, 64, 0)
s = 14: (0, 34, 6, 20, 44, 14, 103, 108, 34, 30, 64, 0)
s = 15: (0, 49, 15, 22, 53, 15, 98, 102, 39, 47, 58, 0)
s = 16: (0, 27, 6, 22, 59, 20, 46, 71, 39, 54, 42, 0)
s = 17: (0, 25, 8, 21, 69, 11, 93, 64, 27, 31, 35, 0)
s = 18: (0, 30, 10, 15, 96, 20, 59, 86, 50, 61, 36, 0)
s = 19: (0, 30, 10, 22, 48, 10, 101, 94, 30, 34, 47, 0)
s = 20: (0, 29, 14, 17, 62, 12, 81, 79, 53, 68, 44, 0)
s = 21: (0, 35, 13, 16, 98, 17, 83, 71, 26, 44, 47, 0)
s = 22: (0, 30, 13, 18, 85, 13, 92, 102, 59, 63, 47, 0)
s = 23: (0, 49, 16, 23, 57, 22, 97, 83, 40, 60, 61, 0)
s = 24: (0, 35, 8, 37, 80, 12, 82, 115, 35, 62, 55, 0)
s = 25: (0, 25, 8, 23, 99, 27, 68, 133, 36, 73, 36, 0)
s = 26: (0, 45, 11, 16, 72, 29, 68, 89, 28, 75, 33, 0)
s = 27: (0, 42, 8, 25, 64, 19, 58, 76, 33, 37, 55, 0)
s = 28: (0, 45, 8, 16, 98, 15, 68, 167, 51, 75, 27, 0)
s = 29: (0, 35, 10, 28, 56, 13, 87, 114, 24, 58, 54, 0)
s = 30: (0, 44, 11, 27, 56, 22, 98, 61, 30, 50, 44, 0)
s = 31: (0, 49, 10, 23, 98, 19, 90, 106, 28, 41, 43, 0)
s = 32: (0, 27, 8, 25, 70, 11, 77, 106, 28, 55, 46, 0)
s = 33: (0, 29, 16, 36, 81, 24, 82, 79, 37, 71, 44, 0)
s = 34: (0, 50, 12, 31, 95, 17, 85, 118, 50, 55, 45, 0)
s = 35: (0, 24, 11, 30, 74, 25, 53, 121, 25, 61, 40, 0)
s = 36: (0, 25, 12, 23, 109, 25, 92, 98, 24, 64, 39, 0)
s = 37: (0, 46, 14, 20, 51, 13, 99, 89, 40, 61, 46, 0)
s = 38: (0, 37, 8, 49, 110, 20, 93, 105, 27, 45, 47, 0)
s = 39: (0, 38, 11, 26, 64, 12, 67, 82, 30, 54, 31, 0)
s = 40: (0, 40, 13, 36, 48, 15, 87, 64, 50, 44, 33, 0)
s = 41: (0, 45, 13, 27, 87, 18, 87, 102, 34, 45, 71, 0)
s = 42: (0, 54, 11, 32, 56, 12, 79, 63, 19, 75, 37, 0)
s = 43: (0, 55, 13, 25, 58, 16, 65, 92, 39, 52, 50, 0)
s = 44: (0, 32, 8, 25, 78, 26, 95, 67, 34, 39, 40, 0)
s = 45: (0, 33, 20, 36, 52, 19, 70, 67, 38, 62, 71, 0)
s = 46: (0, 27, 10, 18, 46, 22, 92, 66, 26, 71, 36, 0)
s = 47: (0, 29, 15, 23, 102, 29, 89, 78, 32, 53, 46, 0)
s = 48: (0, 39, 10, 17, 50, 24, 59, 114, 22, 67, 40, 0)
s = 49: (0, 43, 14, 16, 78, 16, 62, 53, 48, 46, 45, 0)
s = 50: (0, 25, 16, 15, 59, 16, 117, 104, 43, 51, 27, 0)
s = 51: (0, 51, 9, 30, 81, 15, 99, 97, 24, 41, 58, 0)
s = 52: (0, 37, 8, 19, 45, 11, 64, 66, 28, 50, 46, 0)
s = 53: (0, 31, 9, 24, 97, 21, 64, 89, 66, 71, 48, 0)
s = 54: (0, 24, 7, 27, 116, 15, 62, 74, 36, 51, 33, 0)
s = 55: (0, 24, 11, 34, 72, 14, 55, 71, 28, 62, 43, 0)
s = 56: (0, 35, 14, 15, 57, 23, 95, 74, 22, 83, 36, 0)
s = 57: (0, 35, 7, 25, 85, 17, 121, 91, 53, 39, 33, 0)
s = 58: (0, 37, 11, 22, 61, 16, 78, 74, 31, 30, 44, 0)
s = 59: (0, 30, 14, 30, 84, 15, 57, 101, 51, 59, 33, 0)
s = 60: (0, 32, 6, 29, 100, 20, 50, 100, 20, 72, 54, 0)
s = 61: (0, 29, 12, 33, 84, 21, 93, 135, 44, 62, 45, 0)
s = 62: (0, 39, 9, 29, 62, 12, 72, 129, 40, 28, 32, 0)
s = 63: (0, 30, 8, 18, 95, 14, 68, 155, 57, 60, 41, 0)
s = 64: (0, 32, 10, 22, 60, 14, 86, 96, 30, 45, 44, 0)
s = 65: (0, 51, 10, 16, 92, 14, 91, 70, 39, 54, 54, 0)
s = 66: (0, 29, 9, 22, 79, 11, 110, 71, 33, 103, 28, 0)
s = 67: (0, 35, 14, 39, 93, 24, 104, 92, 33, 66, 54, 0)
s = 68: (0, 33, 13, 37, 42, 12, 64, 91, 27, 63, 37, 0)
s = 69: (0, 26, 15, 23, 98, 10, 80, 121, 45, 82, 35, 0)
s = 70: (0, 41, 10, 21, 49, 21, 82, 101, 49, 69, 37, 0)
s = 71: (0, 32, 13, 43, 71, 15, 127, 115, 41, 73, 41, 0)
s = 72: (0, 45, 13, 21, 112, 12, 112, 91, 46, 63, 54, 0)
s = 73: (0, 48, 15, 26, 81, 12, 49, 59, 47, 74, 60, 0)
s = 74: (0, 29, 15, 32, 97, 15, 88, 77, 68, 50, 40, 0)
s = 75: (0, 36, 9, 24, 84, 26, 57, 72, 31, 58, 53, 0)
s = 76: (0, 52, 18, 25, 76, 18, 59, 78, 23, 64, 26, 0)
s = 77: (0, 22, 10, 45, 69, 20, 102, 92, 31, 39, 42, 0)
s = 78: (0, 49, 11, 21, 91, 13, 129, 108, 41, 98, 57, 0)
s = 79: (0, 29, 9, 22, 78, 15, 92, 107, 27, 47, 40, 0)
s = 80: (0, 20, 9, 23, 63, 15, 112, 120, 39, 45, 65, 0)
s = 81: (0, 31, 16, 14, 94, 15, 86, 52, 49, 47, 55, 0)
s = 82: (0, 69, 15, 37, 114, 17, 90, 121, 35, 37, 43, 0)
s = 83: (0, 38, 8, 19, 51, 15, 88, 64, 25, 54, 41, 0)
s = 84: (0, 41, 10, 34, 49, 23, 77, 59, 31, 40, 42, 0)
s = 85: (0, 40, 9, 46, 94, 12, 114, 111, 34, 51, 40, 0)
s = 86: (0, 26, 12, 24, 63, 14, 97, 103, 44, 61, 50, 0)
s = 87: (0, 42, 16, 25, 78, 17, 49, 66, 30, 58, 33, 0)
s = 88: (0, 21, 14, 20, 131, 15, 90, 80, 26, 46, 44, 0)
s = 89: (0, 30, 8, 40, 94, 12, 72, 61, 37, 47, 29, 0)
s = 90: (0, 32, 12, 22, 93, 14, 118, 83, 37, 49, 26, 0)
s = 91: (0, 23, 19, 24, 64, 16, 122, 102, 47, 47, 36, 0)
s = 92: (0, 63, 8, 34, 64, 31, 124, 117, 31, 37, 49, 0)
s = 93: (0, 37, 16, 22, 92, 26, 68, 132, 38, 40, 46, 0)
s = 94: (0, 37, 8, 21, 50, 15, 62, 60, 39, 41, 43, 0)
s = 95: (0, 30, 12, 32, 47, 27, 48, 100, 47, 44, 42, 0)
s = 96: (0, 44, 14, 19, 81, 13, 75, 95, 31, 45, 46, 0)
s = 97: (0, 21, 14, 24, 66, 19, 65, 99, 44, 34, 35, 0)
s = 98: (0, 33, 11, 37, 51, 21, 44, 71, 46, 40, 25, 0)
s = 99: (0, 44, 7, 21, 101, 21, 87, 71, 35, 63, 46, 0)
s = 100: (0, 47, 12, 19, 48, 15, 73, 88, 59, 64, 46, 0)
s = 101: (0, 37, 11, 23, 63, 34, 86, 68, 32, 47, 41, 0)
s = 102: (0, 28, 12, 23, 55, 21, 58, 93, 52, 45, 36, 0)
s = 103: (0, 37, 9, 30, 54, 19, 78, 91, 43, 57, 57, 0)
s = 104: (0, 42, 7, 29, 74, 25, 79, 138, 47, 50, 40, 0)
s = 105: (0, 34, 12, 22, 64, 20, 73, 104, 31, 44, 61, 0)
s = 106: (0, 29, 11, 21, 93, 15, 70, 96, 54, 42, 60, 0)
s = 107: (0, 22, 13, 23, 105, 27, 67, 177, 31, 53, 31, 0)
s = 108: (0, 32, 13, 26, 64, 13, 78, 98, 35, 55, 34, 0)
s = 109: (0, 29, 12, 38, 58, 24, 79, 98, 44, 70, 34, 0)
s = 110: (0, 21, 10, 30, 67, 14, 106, 106, 26, 39, 34, 0)
s = 111: (0, 47, 19, 26, 54, 20, 73, 150, 29, 78, 42, 0)
s = 112: (0, 42, 8, 45, 45, 23, 113, 86, 19, 55, 59, 0)
s = 113: (0, 29, 12, 21, 71, 13, 51, 117, 28, 46, 43, 0)
s = 114: (0, 30, 12, 24, 100, 12, 73, 89, 20, 56, 41, 0)
s = 115: (0, 23, 7, 16, 90, 11, 73, 76, 56, 77, 41, 0)
s = 116: (0, 36, 9, 30, 64, 15, 101, 103, 26, 71, 47, 0)
s = 117: (0, 26, 10, 24, 75, 22, 100, 104, 45, 30, 35, 0)
s = 118: (0, 25, 9, 41, 121, 11, 63, 125, 36, 52, 46, 0)
s = 119: (0, 42, 12, 41, 75, 19, 77, 68, 35, 97, 41, 0)
s = 120: (0, 26, 12, 29, 120, 16, 111, 70, 35, 34, 55, 0)
s = 121: (0, 34, 20, 22, 54, 12, 66, 80, 54, 44, 54, 0)
s = 122: (0, 43, 8, 17, 51, 16, 55, 146, 58, 53, 44, 0)
s = 123: (0, 31, 10, 28, 96, 10, 150, 91, 28, 61, 29, 0)
s = 124: (0, 42, 13, 26, 65, 20, 61, 96, 34, 51, 46, 0)
s = 125: (0, 40, 8, 28, 108, 11, 52, 120, 30, 56, 53, 0)
s = 126: (0, 23, 15, 24, 41, 14, 74, 76, 38, 62, 61, 0)
s = 127: (0, 23, 8, 23, 77, 23, 67, 137, 25, 41, 42, 0)
s = 128: (0, 37, 8, 21, 121, 21, 64, 167, 44, 66, 32, 0)
s = 129: (0, 33, 14, 32, 103, 28, 72, 51, 32, 71, 27, 0)
s = 130: (0, 47, 15, 24, 85, 13, 66, 86, 26, 61, 55, 0)
s = 131: (0, 33, 10, 36, 81, 19, 131, 98, 41, 51, 30, 0)
s = 132: (0, 39, 12, 19, 88, 19, 61, 99, 54, 47, 56, 0)
s = 133: (0, 34, 8, 27, 68, 16, 108, 151, 19, 62, 38, 0)
s = 134: (0, 32, 13, 44, 92, 19, 59, 63, 46, 34, 55, 0)
s = 135: (0, 35, 10, 23, 103, 12, 70, 47, 23, 62, 50, 0)
s = 136: (0, 42, 12, 19, 102, 19, 90, 74, 28, 69, 42, 0)
s = 137: (0, 25, 11, 19, 82, 25, 95, 147, 35, 58, 61, 0)
s = 138: (0, 50, 11, 22, 72, 11, 70, 59, 53, 67, 43, 0)
s = 139: (0, 30, 13, 16, 40, 20, 103, 103, 35, 43, 36, 0)
s = 140: (0, 52, 11, 27, 83, 19, 91, 75, 35, 66, 35, 0)
s = 141: (0, 33, 11, 17, 99, 12, 63, 121, 35, 44, 49, 0)
s = 142: (0, 50, 12, 19, 53, 19, 76, 102, 36, 71, 30, 0)
s = 143: (0, 31, 8, 22, 79, 13, 91, 78, 53, 68, 31, 0)
s = 144: (0, 26, 10, 26, 68, 18, 91, 51, 41, 48, 56, 0)
s = 145: (0, 33, 12, 23, 63, 19, 47, 65, 25, 88, 34, 0)
s = 146: (0, 53, 15, 27, 91, 26, 77, 137, 31, 47, 52, 0)
s = 147: (0, 35, 9, 29, 58, 25, 51, 96, 44, 46, 37, 0)
s = 148: (0, 57, 9, 19, 72, 15, 73, 59, 36, 79, 56, 0)
s = 149: (0, 38, 10, 23, 68, 19, 75, 95, 29, 60, 35, 0)
s = 150: (0, 35, 7, 23, 70, 17, 71, 93, 27, 57, 72, 0)
s = 151: (0, 29, 10, 36, 86, 25, 128, 82, 55, 57, 40, 0)
s = 152: (0, 45, 8, 40, 77, 19, 102, 75, 31, 41, 38, 0)
s = 153: (0, 41, 14, 22, 87, 24, 61, 152, 43, 34, 32, 0)
s = 154: (0, 57, 13, 18, 66, 27, 55, 92, 50, 83, 41, 0)
s = 155: (0, 20, 9, 29, 88, 24, 86, 79, 40, 44, 59, 0)
s = 156: (0, 37, 12, 24, 58, 18, 98, 108, 37, 38, 31, 0)
s = 157: (0, 23, 17, 15, 63, 16, 88, 83, 43, 31, 43, 0)
s = 158: (0, 30, 11, 38, 53, 25, 98, 117, 38, 34, 32, 0)
s = 159: (0, 42, 7, 26, 94, 13, 63, 133, 33, 51, 57, 0)
s = 160: (0, 33, 9, 30, 71, 23, 130, 127, 33, 56, 35, 0)
s = 161: (0, 25, 7, 28, 64, 15, 77, 138, 31, 72, 45, 0)
s = 162: (0, 23, 17, 26, 79, 14, 79, 99, 44, 40, 55, 0)
s = 163: (0, 47, 9, 18, 96, 24, 54, 83, 27, 46, 35, 0)
s = 164: (0, 37, 14, 17, 89, 19, 48, 90, 53, 63, 59, 0)
s = 165: (0, 28, 15, 36, 64, 21, 99, 66, 36, 49, 34, 0)
s = 166: (0, 40, 20, 25, 62, 25, 94, 132, 34, 66, 56, 0)
s = 167: (0, 19, 14, 47, 67, 21, 64, 74, 27, 45, 52, 0)
s = 168: (0, 41, 9, 29, 79, 11, 131, 90, 21, 42, 44, 0)
s = 169: (0, 50, 10, 22, 73, 15, 79, 86, 36, 76, 29, 0)
s = 170: (0, 22, 10, 26, 64, 12, 60, 75, 37, 62, 29, 0)
s = 171: (0, 35, 9, 17, 87, 20, 74, 105, 48, 55, 59, 0)
s = 172: (0, 29, 10, 22, 83, 20, 57, 94, 30, 31, 29, 0)
s = 173: (0, 27, 12, 29, 72, 17, 60, 116, 42, 85, 50, 0)
s = 174: (0, 32, 12, 28, 77, 14, 76, 116, 41, 65, 41, 0)
s = 175: (0, 23, 9, 30, 72, 13, 81, 77, 43, 50, 59, 0)
s = 176: (0, 35, 13, 21, 54, 16, 107, 108, 26, 38, 42, 0)
s = 177: (0, 31, 10, 23, 85, 12, 73, 88, 41, 42, 76, 0)
s = 178: (0, 21, 11, 30, 58, 17, 138, 68, 37, 48, 40, 0)
s = 179: (0, 24, 12, 25, 114, 14, 57, 154, 25, 61, 46, 0)
s = 180: (0, 34, 24, 16, 61, 10, 102, 84, 51, 48, 35, 0)
s = 181: (0, 33, 14, 47, 53, 15, 75, 81, 32, 61, 54, 0)
s = 182: (0, 45, 14, 22, 77, 22, 80, 100, 36, 52, 47, 0)
s = 183: (0, 49, 10, 32, 58, 17, 88, 113, 27, 59, 46, 0)
s = 184: (0, 27, 19, 20, 84, 26, 77, 129, 41, 45, 26, 0)
s = 185: (0, 51, 11, 17, 102, 12, 107, 69, 39, 47, 33, 0)
s = 186: (0, 46, 11, 26, 73, 26, 112, 109, 46, 29, 41, 0)
s = 187: (0, 60, 7, 24, 88, 17, 79, 50, 40, 51, 41, 0)
s = 188: (0, 28, 8, 36, 41, 11, 96, 121, 36, 58, 50, 0)
s = 189: (0, 72, 11, 14, 126, 16, 102, 63, 26, 48, 61, 0)
s = 190: (0, 28, 7, 24, 42, 21, 66, 81, 26, 87, 31, 0)
s = 191: (0, 41, 11, 20, 84, 19, 104, 85, 35, 45, 36, 0)
s = 192: (0, 26, 11, 24, 75, 15, 137, 86, 31, 53, 41, 0)
s = 193: (0, 39, 8, 23, 62, 22, 96, 88, 34, 73, 26, 0)
s = 194: (0, 28, 15, 43, 112, 17, 119, 100, 40, 69, 52, 0)
s = 195: (0, 33, 8, 21, 42, 14, 91, 115, 37, 74, 77, 0)
s = 196: (0, 31, 14, 26, 93, 16, 88, 99, 30, 74, 37, 0)
s = 197: (0, 25, 12, 26, 67, 16, 68, 156, 25, 37, 73, 0)
s = 198: (0, 51, 8, 26, 79, 19, 85, 69, 34, 51, 36, 0)
s = 199: (0, 28, 14, 17, 66, 22, 47, 111, 48, 61, 38, 0)
s = 200: (0, 62, 8, 36, 67, 23, 56, 74, 40, 63, 41, 0)
************************************************************************
ES/LS-VALUES:
jobnr.   ES(i)    LS(i)
------------------------------------------------------------------------
  0        0        0
  1        0       64
  2        0       46
  3        0       62
  4        2       49
  5        3       74
  6        3       66
  7       10       58
  8       23       76
  9       23       72
 10       10       78
 11       34       84
************************************************************************
BIG-M-VALUES:
M1 = 26, M2 = 177
************************************************************************
